
Gurobi 10.0.1 (linux64) logging started Tue Sep 12 19:04:17 2023

Set parameter LogFile to value "./log/lipa50a.log"
Set parameter TimeLimit to value 180
Gurobi Optimizer version 10.0.1 build v10.0.1rc0 (linux64)

CPU model: 12th Gen Intel(R) Core(TM) i5-12600KF, instruction set [SSE2|AVX|AVX2]
Thread count: 8 physical cores, 16 logical processors, using up to 16 threads

Optimize a model with 100 rows, 2500 columns and 5000 nonzeros
Model fingerprint: 0x8da137e4
Model has 3001250 quadratic objective terms
Variable types: 0 continuous, 2500 integer (2500 binary)
Coefficient statistics:
  Matrix range     [1e+00, 1e+00]
  Objective range  [0e+00, 0e+00]
  QObjective range [4e+00, 3e+02]
  Bounds range     [1e+00, 1e+00]
  RHS range        [1e+00, 1e+00]
Found heuristic solution: objective 64109.000000
Presolve removed 0 rows and 0 columns (presolve time = 37s) ...
Presolve time: 36.54s
Presolved: 100 rows, 2500 columns, 5000 nonzeros
Presolved model has 3003750 quadratic objective terms
Variable types: 0 continuous, 2500 integer (2500 binary)

Root simplex log...

Iteration    Objective       Primal Inf.    Dual Inf.      Time
       0    0.0000000e+00   0.000000e+00   1.474942e+05     37s
    1497   -3.0140464e+05   0.000000e+00   4.596200e+03     40s
    2101   -3.0542650e+05   0.000000e+00   1.451755e+03     45s
    2501   -3.0697382e+05   0.000000e+00   2.397158e+02     51s
    2600   -3.0727857e+05   0.000000e+00   0.000000e+00     53s

Root relaxation: objective -3.072786e+05, 2600 iterations, 16.16 seconds (31.87 work units)

    Nodes    |    Current Node    |     Objective Bounds      |     Work
 Expl Unexpl |  Obj  Depth IntInf | Incumbent    BestBd   Gap | It/Node Time

H    0     0                    64011.000000    0.00000   100%     -   52s
H    0     0                    63609.000000    0.00000   100%     -   52s
H    0     0                    63567.000000    0.00000   100%     -   52s
     0     0    0.00000    0 2500 63567.0000    0.00000   100%     -   52s
H    0     0                    63339.000000    0.00000   100%     -   53s
     0     0    0.00000    0 2500 63339.0000    0.00000   100%     -   54s
H    0     0                    63129.000000    0.00000   100%     -   68s
H    0     2                    63070.000000    0.00000   100%     -   72s
     0     2    0.00000    0 2500 63070.0000    0.00000   100%     -   72s
     3     8    0.00000    2 2498 63070.0000    0.00000   100%  33.7   76s
    15    24    0.00000    4 2496 63070.0000    0.00000   100%  45.8   80s
H   31    40                    63044.000000    0.00000   100%  23.2   82s
    55    64    0.00000    9 2491 63044.0000    0.00000   100%  14.0   85s
   103   112    0.00000   15 2485 63044.0000    0.00000   100%   8.4   90s
H  143   152                    63035.000000    0.00000   100%   6.6   95s
H  146   152                    63012.000000    0.00000   100%   6.5   95s
   172   189    0.00000   24 2476 63012.0000    0.00000   100%   5.8  100s
   220   237    0.00000   30 2470 63012.0000    0.00000   100%   5.0  105s
   252   253    0.00000   29 2500 63012.0000    0.00000   100%   4.6  148s

Explored 252 nodes (4406 simplex iterations) in 180.18 seconds (168.09 work units)
Thread count was 16 (of 16 available processors)

Solution count 10: 63012 63035 63044 ... 64109

Time limit reached
Best objective 6.301200000000e+04, best bound 0.000000000000e+00, gap 100.0000%
